* ENCODING=ISO-8859-1
NAME          CPLEX
ROWS
 N  obj1    
 G  c1      
 G  c2      
 G  c3      
 G  c4      
 G  c5      
 G  c6      
 G  c7      
 G  c8      
 G  c9      
 G  c10     
 G  c11     
 G  c12     
 G  c13     
 G  c14     
 G  c15     
 G  c16     
 G  c17     
 G  c18     
 G  c19     
 G  c20     
 G  c21     
 G  c22     
 G  c23     
 G  c24     
 G  c25     
COLUMNS
    MARK0000  'MARKER'                 'INTORG'
    x1        obj1                            1
    x1        c10                           320
    x1        c14                           235
    x2        obj1                            1
    x2        c3                            376
    x2        c8                            884
    x2        c13                           736
    x3        obj1                            1
    x3        c9                            461
    x3        c22                           305
    x4        obj1                            1
    x4        c14                           477
    x4        c18                           492
    x5        obj1                            1
    x5        c1                            761
    x5        c9                            634
    x5        c12                           286
    x5        c13                           907
    x6        obj1                            1
    x6        c4                            723
    x6        c14                           230
    x6        c24                           662
    x7        obj1                            1
    x7        c2                            182
    x7        c14                           628
    x7        c20                           278
    x7        c21                           483
    x8        obj1                            1
    x8        c15                           295
    x8        c17                           844
    x9        obj1                            1
    x9        c4                            771
    x9        c15                           777
    x9        c16                           504
    x9        c20                           795
    x10       obj1                            1
    x10       c19                           190
    x11       obj1                            1
    x11       c1                            594
    x11       c10                           721
    x11       c18                           314
    x12       obj1                            1
    x12       c5                            775
    x13       obj1                            1
    x13       c4                            755
    x13       c25                           317
    x14       obj1                            1
    x14       c1                            850
    x14       c9                            245
    x14       c15                           241
    x15       obj1                            1
    x15       c1                            200
    x15       c5                            213
    x15       c12                           882
    x16       obj1                            1
    x16       c3                            979
    x16       c21                           978
    x17       obj1                            1
    x17       c10                           887
    x17       c16                           989
    x17       c22                           781
    x18       obj1                            1
    x18       c8                            676
    x18       c9                            516
    x18       c10                           279
    x19       obj1                            1
    x19       c7                            641
    x19       c11                           544
    x19       c16                           156
    x20       obj1                            1
    x20       c12                           285
    x20       c21                           281
    x21       obj1                            1
    x21       c4                            494
    x21       c5                            395
    x21       c12                           197
    x21       c18                           719
    x21       c24                           410
    x22       obj1                            1
    x23       obj1                            1
    x23       c3                            240
    x23       c21                           983
    x23       c23                           284
    x24       obj1                            1
    x24       c16                           729
    x25       obj1                            1
    x25       c2                            958
    x26       obj1                            1
    x26       c4                            922
    x26       c6                            747
    x26       c8                            632
    x27       obj1                            1
    x27       c5                            538
    x27       c12                           575
    x27       c15                           242
    x27       c19                           831
    x27       c25                           523
    x28       obj1                            1
    x28       c24                           353
    x29       obj1                            1
    x29       c1                            167
    x29       c10                           302
    x29       c11                           921
    x29       c23                           674
    x30       obj1                            1
    x30       c10                           351
    x31       obj1                            1
    x31       c6                            400
    x32       obj1                            1
    x32       c3                            553
    x32       c5                            867
    x32       c9                            800
    x32       c20                           469
    x33       obj1                            1
    x33       c4                            298
    x33       c7                            528
    x33       c21                           147
    x33       c25                           756
    x34       obj1                            1
    x34       c17                           467
    x34       c24                           533
    x35       obj1                            1
    x35       c1                            700
    x35       c12                           941
    x35       c20                           636
    x35       c24                           654
    x35       c25                           134
    x36       obj1                            1
    x36       c16                           255
    x36       c18                           804
    x37       obj1                            1
    x37       c8                            125
    x37       c11                           561
    x37       c18                           790
    x38       obj1                            1
    x38       c19                           468
    x38       c24                           735
    x39       obj1                            1
    x39       c8                            206
    x39       c21                           617
    x39       c22                           966
    x40       obj1                            1
    x40       c24                           204
    x41       obj1                            1
    x41       c1                            217
    x41       c25                           933
    x42       obj1                            1
    x42       c23                           608
    x43       obj1                            1
    x43       c5                            680
    x43       c10                           113
    x43       c18                           202
    x44       obj1                            1
    x44       c20                           950
    x45       obj1                            1
    x45       c9                            957
    x45       c16                           502
    x45       c22                           480
    x46       obj1                            1
    x46       c6                            258
    x46       c7                            142
    x46       c17                           410
    x47       obj1                            1
    x47       c4                            698
    x47       c9                            122
    x47       c20                           840
    x48       obj1                            1
    x48       c2                            371
    x49       obj1                            1
    x49       c7                            810
    x49       c13                           294
    x50       obj1                            1
    x50       c8                            699
    MARK0001  'MARKER'                 'INTEND'
RHS
    rhs       c1                           1745
    rhs       c2                            756
    rhs       c3                           1074
    rhs       c4                           2331
    rhs       c5                           1734
    rhs       c6                            703
    rhs       c7                           1061
    rhs       c8                           1611
    rhs       c9                           1868
    rhs       c10                          1487
    rhs       c11                          1013
    rhs       c12                          1583
    rhs       c13                           969
    rhs       c14                           785
    rhs       c15                           778
    rhs       c16                          1568
    rhs       c17                           861
    rhs       c18                          1661
    rhs       c19                           745
    rhs       c20                          1984
    rhs       c21                          1745
    rhs       c22                          1266
    rhs       c23                           783
    rhs       c24                          1776
    rhs       c25                          1332
BOUNDS
 LI bnd       x1        0
 LI bnd       x2        0
 LI bnd       x3        0
 LI bnd       x4        0
 LI bnd       x5        0
 LI bnd       x6        0
 LI bnd       x7        0
 LI bnd       x8        0
 LI bnd       x9        0
 LI bnd       x10       0
 LI bnd       x11       0
 LI bnd       x12       0
 LI bnd       x13       0
 LI bnd       x14       0
 LI bnd       x15       0
 LI bnd       x16       0
 LI bnd       x17       0
 LI bnd       x18       0
 LI bnd       x19       0
 LI bnd       x20       0
 LI bnd       x21       0
 LI bnd       x22       0
 LI bnd       x23       0
 LI bnd       x24       0
 LI bnd       x25       0
 LI bnd       x26       0
 LI bnd       x27       0
 LI bnd       x28       0
 LI bnd       x29       0
 LI bnd       x30       0
 LI bnd       x31       0
 LI bnd       x32       0
 LI bnd       x33       0
 LI bnd       x34       0
 LI bnd       x35       0
 LI bnd       x36       0
 LI bnd       x37       0
 LI bnd       x38       0
 LI bnd       x39       0
 LI bnd       x40       0
 LI bnd       x41       0
 LI bnd       x42       0
 LI bnd       x43       0
 LI bnd       x44       0
 LI bnd       x45       0
 LI bnd       x46       0
 LI bnd       x47       0
 LI bnd       x48       0
 LI bnd       x49       0
 LI bnd       x50       0
ENDATA
